n_machines = 2;
n_resources = 4;
n_jobs = 40;
horizon = 1970;
LB = 985;
n_jobs_per_resource = [10, 10, 10, 10];
duration = [36, 30, 61, 84, 55, 83, 37, 42, 20, 81, 62, 90, 37, 5, 72, 74, 36, 17, 1, 9, 23, 74, 94, 18, 25, 4, 80, 20, 94, 7, 90, 93, 71, 79, 85, 17, 56, 9, 88, 11]